set I := q1 q2 q3 q4 q5 q6; #quartieri
param C : 	q1 	q2 	q3 	q4 	q5 	q6 :=
q1			5	10	20	30	30	20
q2			10	5	25	35	20	10
q3			20	25	5	15	30	20
q4			30	35	15	5	15	25
q5			30	20	30	15	5	14
q6			20	10	20	25	14	5
;

param T := 15; #soglia
